c User generated cnf file
p cnf 11 35
-7 7 2 0 
8 -5 11 0 
1 -7 9 0 
-4 8 4 0 
-1 8 1 0 
6 4 -1 0 
-4 6 3 0 
4 1 -10 0 
-10 6 6 0 
5 -4 7 0 
2 5 -1 0 
5 -9 8 0 
10 3 -6 0 
1 11 -1 0 
9 -8 10 0 
4 4 -3 0 
7 -8 6 0 
-4 4 7 0 
-5 10 4 0 
5 6 -8 0 
5 5 -11 0 
-1 4 2 0 
-4 1 11 0 
2 -10 7 0 
11 2 -4 0 
2 2 -2 0 
-7 3 7 0 
1 -7 7 0 
-4 2 4 0 
-9 6 1 0 
11 -2 11 0 
1 7 -9 0 
4 1 -5 0 
7 2 -3 0 
9 -3 4 0 
